p cnf 960 2463
51 -2 -1 0
-51 2 0
-51 1 0
52 -51 -693 0
-52 51 0
-52 693 0
53 -694 -1 0
-53 694 0
-53 1 0
54 -53 -5 0
-54 53 0
-54 5 0
55 -695 -696 0
-55 695 0
-55 696 0
56 -7 -6 0
-56 7 0
-56 6 0
57 -56 -697 0
-57 56 0
-57 697 0
58 -698 -55 0
-58 698 0
-58 55 0
59 -9 -694 0
-59 9 0
-59 694 0
60 -59 -699 0
-60 59 0
-60 699 0
61 -700 -58 0
-61 700 0
-61 58 0
62 -701 -4 0
-62 701 0
-62 4 0
63 -62 -11 0
-63 62 0
-63 11 0
64 -702 -61 0
-64 702 0
-64 61 0
65 -13 -703 0
-65 13 0
-65 703 0
66 -65 -14 0
-66 65 0
-66 14 0
67 -704 -64 0
-67 704 0
-67 64 0
68 -705 -706 0
-68 705 0
-68 706 0
69 -68 -17 0
-69 68 0
-69 17 0
70 -707 -67 0
-70 707 0
-70 67 0
71 -708 -16 0
-71 708 0
-71 16 0
72 -71 -19 0
-72 71 0
-72 19 0
73 -709 -70 0
-73 709 0
-73 70 0
74 -20 -710 0
-74 20 0
-74 710 0
75 -74 -711 0
-75 74 0
-75 711 0
76 -712 -73 0
-76 712 0
-76 73 0
77 -713 -694 0
-77 713 0
-77 694 0
78 -77 -714 0
-78 77 0
-78 714 0
79 -715 -76 0
-79 715 0
-79 76 0
80 -699 -5 0
-80 699 0
-80 5 0
81 -80 -716 0
-81 80 0
-81 716 0
82 -717 -79 0
-82 717 0
-82 79 0
83 -718 -9 0
-83 718 0
-83 9 0
84 -83 -703 0
-84 83 0
-84 703 0
85 -719 -82 0
-85 719 0
-85 82 0
86 -26 -6 0
-86 26 0
-86 6 0
87 -86 -713 0
-87 86 0
-87 713 0
88 -720 -85 0
-88 720 0
-88 85 0
89 -721 -722 0
-89 721 0
-89 722 0
90 -89 -723 0
-90 89 0
-90 723 0
91 -724 -88 0
-91 724 0
-91 88 0
92 -718 -725 0
-92 718 0
-92 725 0
93 -92 -30 0
-93 92 0
-93 30 0
94 -726 -91 0
-94 726 0
-94 91 0
95 -727 -31 0
-95 727 0
-95 31 0
96 -95 -33 0
-96 95 0
-96 33 0
97 -728 -94 0
-97 728 0
-97 94 0
98 -35 -729 0
-98 35 0
-98 729 0
99 -98 -36 0
-99 98 0
-99 36 0
100 -730 -97 0
-100 730 0
-100 97 0
101 -24 -714 0
-101 24 0
-101 714 0
102 -101 -731 0
-102 101 0
-102 731 0
103 -732 -100 0
-103 732 0
-103 100 0
104 -38 -37 0
-104 38 0
-104 37 0
105 -104 -39 0
-105 104 0
-105 39 0
106 -733 -103 0
-106 733 0
-106 103 0
107 -734 -735 0
-107 734 0
-107 735 0
108 -107 -723 0
-108 107 0
-108 723 0
109 -736 -106 0
-109 736 0
-109 106 0
110 -737 -20 0
-110 737 0
-110 20 0
111 -110 -738 0
-111 110 0
-111 738 0
112 -739 -109 0
-112 739 0
-112 109 0
113 -714 -18 0
-113 714 0
-113 18 0
114 -113 -39 0
-114 113 0
-114 39 0
115 -740 -112 0
-115 740 0
-115 112 0
116 -741 -12 0
-116 741 0
-116 12 0
117 -116 -33 0
-117 116 0
-117 33 0
118 -742 -115 0
-118 742 0
-118 115 0
119 -705 -743 0
-119 705 0
-119 743 0
120 -119 -33 0
-120 119 0
-120 33 0
121 -744 -118 0
-121 744 0
-121 118 0
122 -43 -42 0
-122 43 0
-122 42 0
123 -122 -8 0
-123 122 0
-123 8 0
124 -745 -121 0
-124 745 0
-124 121 0
125 -31 -1 0
-125 31 0
-125 1 0
126 -125 -36 0
-126 125 0
-126 36 0
127 -746 -124 0
-127 746 0
-127 124 0
128 -34 -13 0
-128 34 0
-128 13 0
129 -128 -697 0
-129 128 0
-129 697 0
130 -747 -127 0
-130 747 0
-130 127 0
131 -735 -703 0
-131 735 0
-131 703 0
132 -131 -41 0
-132 131 0
-132 41 0
133 -748 -130 0
-133 748 0
-133 130 0
134 -44 -708 0
-134 44 0
-134 708 0
135 -134 -749 0
-135 134 0
-135 749 0
136 -750 -133 0
-136 750 0
-136 133 0
137 -734 -713 0
-137 734 0
-137 713 0
138 -137 -23 0
-138 137 0
-138 23 0
139 -751 -136 0
-139 751 0
-139 136 0
140 -53 -738 0
-140 53 0
-140 738 0
141 -752 -139 0
-141 752 0
-141 139 0
142 -22 -753 0
-142 22 0
-142 753 0
143 -142 -749 0
-143 142 0
-143 749 0
144 -754 -141 0
-144 754 0
-144 141 0
145 -41 -708 0
-145 41 0
-145 708 0
146 -145 -43 0
-146 145 0
-146 43 0
147 -755 -144 0
-147 755 0
-147 144 0
148 -756 -743 0
-148 756 0
-148 743 0
149 -148 -727 0
-149 148 0
-149 727 0
150 -757 -147 0
-150 757 0
-150 147 0
151 -30 -701 0
-151 30 0
-151 701 0
152 -151 -710 0
-152 151 0
-152 710 0
153 -758 -150 0
-153 758 0
-153 150 0
154 -759 -17 0
-154 759 0
-154 17 0
155 -154 -36 0
-155 154 0
-155 36 0
156 -760 -153 0
-156 760 0
-156 153 0
157 -40 -703 0
-157 40 0
-157 703 0
158 -157 -708 0
-158 157 0
-158 708 0
159 -761 -156 0
-159 761 0
-159 156 0
160 -45 -12 0
-160 45 0
-160 12 0
161 -160 -1 0
-161 160 0
-161 1 0
162 -762 -159 0
-162 762 0
-162 159 0
163 -35 -15 0
-163 35 0
-163 15 0
164 -163 -711 0
-164 163 0
-164 711 0
165 -763 -162 0
-165 763 0
-165 162 0
166 -42 -706 0
-166 42 0
-166 706 0
167 -166 -23 0
-167 166 0
-167 23 0
168 -764 -165 0
-168 764 0
-168 165 0
169 -17 -6 0
-169 17 0
-169 6 0
170 -169 -46 0
-170 169 0
-170 46 0
171 -765 -168 0
-171 765 0
-171 168 0
172 -47 -708 0
-172 47 0
-172 708 0
173 -172 -731 0
-173 172 0
-173 731 0
174 -766 -171 0
-174 766 0
-174 171 0
175 -16 -697 0
-175 16 0
-175 697 0
176 -175 -46 0
-176 175 0
-176 46 0
177 -767 -174 0
-177 767 0
-177 174 0
178 -768 -27 0
-178 768 0
-178 27 0
179 -178 -36 0
-179 178 0
-179 36 0
180 -769 -177 0
-180 769 0
-180 177 0
181 -18 -16 0
-181 18 0
-181 16 0
182 -181 -711 0
-182 181 0
-182 711 0
183 -770 -180 0
-183 770 0
-183 180 0
184 -771 -772 0
-184 771 0
-184 772 0
185 -184 -47 0
-185 184 0
-185 47 0
186 -773 -183 0
-186 773 0
-186 183 0
187 -46 -713 0
-187 46 0
-187 713 0
188 -187 -731 0
-188 187 0
-188 731 0
189 -774 -186 0
-189 774 0
-189 186 0
190 -157 -693 0
-190 157 0
-190 693 0
191 -775 -189 0
-191 775 0
-191 189 0
192 -776 -22 0
-192 776 0
-192 22 0
193 -192 -697 0
-193 192 0
-193 697 0
194 -777 -191 0
-194 777 0
-194 191 0
195 -31 -12 0
-195 31 0
-195 12 0
196 -195 -39 0
-196 195 0
-196 39 0
197 -778 -194 0
-197 778 0
-197 194 0
198 -44 -779 0
-198 44 0
-198 779 0
199 -198 -16 0
-199 198 0
-199 16 0
200 -780 -197 0
-200 780 0
-200 197 0
201 -18 -1 0
-201 18 0
-201 1 0
202 -201 -749 0
-202 201 0
-202 749 0
203 -781 -200 0
-203 781 0
-203 200 0
204 -756 -725 0
-204 756 0
-204 725 0
205 -204 -29 0
-205 204 0
-205 29 0
206 -782 -203 0
-206 782 0
-206 203 0
207 -741 -19 0
-207 741 0
-207 19 0
208 -207 -723 0
-208 207 0
-208 723 0
209 -783 -206 0
-209 783 0
-209 206 0
210 -708 -1 0
-210 708 0
-210 1 0
211 -210 -39 0
-211 210 0
-211 39 0
212 -784 -209 0
-212 784 0
-212 209 0
213 -722 -725 0
-213 722 0
-213 725 0
214 -213 -16 0
-214 213 0
-214 16 0
215 -785 -212 0
-215 785 0
-215 212 0
216 -786 -697 0
-216 786 0
-216 697 0
217 -216 -38 0
-217 216 0
-217 38 0
218 -787 -215 0
-218 787 0
-218 215 0
219 -15 -735 0
-219 15 0
-219 735 0
220 -219 -47 0
-220 219 0
-220 47 0
221 -788 -218 0
-221 788 0
-221 218 0
222 -756 -9 0
-222 756 0
-222 9 0
223 -222 -8 0
-223 222 0
-223 8 0
224 -789 -221 0
-224 789 0
-224 221 0
225 -699 -753 0
-225 699 0
-225 753 0
226 -225 -706 0
-226 225 0
-226 706 0
227 -790 -224 0
-227 790 0
-227 224 0
228 -791 -44 0
-228 791 0
-228 44 0
229 -228 -37 0
-229 228 0
-229 37 0
230 -792 -227 0
-230 792 0
-230 227 0
231 -44 -749 0
-231 44 0
-231 749 0
232 -231 -36 0
-232 231 0
-232 36 0
233 -793 -230 0
-233 793 0
-233 230 0
234 -40 -26 0
-234 40 0
-234 26 0
235 -234 -18 0
-235 234 0
-235 18 0
236 -794 -233 0
-236 794 0
-236 233 0
237 -795 -725 0
-237 795 0
-237 725 0
238 -237 -8 0
-238 237 0
-238 8 0
239 -796 -236 0
-239 796 0
-239 236 0
240 -706 -797 0
-240 706 0
-240 797 0
241 -240 -693 0
-241 240 0
-241 693 0
242 -798 -239 0
-242 798 0
-242 239 0
243 -48 -44 0
-243 48 0
-243 44 0
244 -243 -3 0
-244 243 0
-244 3 0
245 -799 -242 0
-245 799 0
-245 242 0
246 -791 -716 0
-246 791 0
-246 716 0
247 -246 -33 0
-247 246 0
-247 33 0
248 -800 -245 0
-248 800 0
-248 245 0
249 -738 -17 0
-249 738 0
-249 17 0
250 -249 -50 0
-250 249 0
-250 50 0
251 -801 -248 0
-251 801 0
-251 248 0
252 -802 -714 0
-252 802 0
-252 714 0
253 -252 -46 0
-253 252 0
-253 46 0
254 -803 -251 0
-254 803 0
-254 251 0
255 -41 -771 0
-255 41 0
-255 771 0
256 -255 -741 0
-256 255 0
-256 741 0
257 -804 -254 0
-257 804 0
-257 254 0
258 -43 -23 0
-258 43 0
-258 23 0
259 -258 -727 0
-259 258 0
-259 727 0
260 -805 -257 0
-260 805 0
-260 257 0
261 -768 -18 0
-261 768 0
-261 18 0
262 -261 -711 0
-262 261 0
-262 711 0
263 -806 -260 0
-263 806 0
-263 260 0
264 -25 -701 0
-264 25 0
-264 701 0
265 -264 -807 0
-265 264 0
-265 807 0
266 -808 -263 0
-266 808 0
-266 263 0
267 -809 -8 0
-267 809 0
-267 8 0
268 -267 -723 0
-268 267 0
-268 723 0
269 -810 -266 0
-269 810 0
-269 266 0
270 -41 -703 0
-270 41 0
-270 703 0
271 -270 -17 0
-271 270 0
-271 17 0
272 -811 -269 0
-272 811 0
-272 269 0
273 -722 -25 0
-273 722 0
-273 25 0
274 -273 -795 0
-274 273 0
-274 795 0
275 -812 -272 0
-275 812 0
-275 272 0
276 -41 -753 0
-276 41 0
-276 753 0
277 -276 -16 0
-277 276 0
-277 16 0
278 -813 -275 0
-278 813 0
-278 275 0
279 -35 -30 0
-279 35 0
-279 30 0
280 -279 -29 0
-280 279 0
-280 29 0
281 -814 -278 0
-281 814 0
-281 278 0
282 -49 -815 0
-282 49 0
-282 815 0
283 -282 -46 0
-283 282 0
-283 46 0
284 -816 -281 0
-284 816 0
-284 281 0
285 -48 -31 0
-285 48 0
-285 31 0
286 -285 -721 0
-286 285 0
-286 721 0
287 -817 -284 0
-287 817 0
-287 284 0
288 -5 -797 0
-288 5 0
-288 797 0
289 -288 -37 0
-289 288 0
-289 37 0
290 -818 -287 0
-290 818 0
-290 287 0
291 -737 -27 0
-291 737 0
-291 27 0
292 -291 -36 0
-292 291 0
-292 36 0
293 -819 -290 0
-293 819 0
-293 290 0
294 -38 -22 0
-294 38 0
-294 22 0
295 -294 -710 0
-295 294 0
-295 710 0
296 -820 -293 0
-296 820 0
-296 293 0
297 -756 -713 0
-297 756 0
-297 713 0
298 -297 -738 0
-298 297 0
-298 738 0
299 -821 -296 0
-299 821 0
-299 296 0
300 -35 -743 0
-300 35 0
-300 743 0
301 -300 -786 0
-301 300 0
-301 786 0
302 -822 -299 0
-302 822 0
-302 299 0
303 -795 -753 0
-303 795 0
-303 753 0
304 -303 -731 0
-304 303 0
-304 731 0
305 -823 -302 0
-305 823 0
-305 302 0
306 -716 -735 0
-306 716 0
-306 735 0
307 -306 -727 0
-307 306 0
-307 727 0
308 -824 -305 0
-308 824 0
-308 305 0
309 -723 -6 0
-309 723 0
-309 6 0
310 -309 -711 0
-310 309 0
-310 711 0
311 -825 -308 0
-311 825 0
-311 308 0
312 -48 -5 0
-312 48 0
-312 5 0
313 -312 -19 0
-313 312 0
-313 19 0
314 -826 -311 0
-314 826 0
-314 311 0
315 -776 -827 0
-315 776 0
-315 827 0
316 -315 -809 0
-316 315 0
-316 809 0
317 -828 -314 0
-317 828 0
-317 314 0
318 -30 -26 0
-318 30 0
-318 26 0
319 -318 -759 0
-319 318 0
-319 759 0
320 -829 -317 0
-320 829 0
-320 317 0
321 -703 -753 0
-321 703 0
-321 753 0
322 -321 -43 0
-322 321 0
-322 43 0
323 -830 -320 0
-323 830 0
-323 320 0
324 -27 -13 0
-324 27 0
-324 13 0
325 -324 -23 0
-325 324 0
-325 23 0
326 -831 -323 0
-326 831 0
-326 323 0
327 -815 -31 0
-327 815 0
-327 31 0
328 -327 -43 0
-328 327 0
-328 43 0
329 -832 -326 0
-329 832 0
-329 326 0
330 -49 -734 0
-330 49 0
-330 734 0
331 -330 -716 0
-331 330 0
-331 716 0
332 -833 -329 0
-332 833 0
-332 329 0
333 -776 -5 0
-333 776 0
-333 5 0
334 -333 -38 0
-334 333 0
-334 38 0
335 -834 -332 0
-335 834 0
-335 332 0
336 -48 -743 0
-336 48 0
-336 743 0
337 -336 -36 0
-337 336 0
-337 36 0
338 -835 -335 0
-338 835 0
-338 335 0
339 -776 -4 0
-339 776 0
-339 4 0
340 -339 -38 0
-340 339 0
-340 38 0
341 -836 -338 0
-341 836 0
-341 338 0
342 -738 -11 0
-342 738 0
-342 11 0
343 -342 -33 0
-343 342 0
-343 33 0
344 -837 -341 0
-344 837 0
-344 341 0
345 -741 -4 0
-345 741 0
-345 4 0
346 -345 -36 0
-346 345 0
-346 36 0
347 -838 -344 0
-347 838 0
-347 344 0
348 -31 -722 0
-348 31 0
-348 722 0
349 -348 -802 0
-349 348 0
-349 802 0
350 -839 -347 0
-350 839 0
-350 347 0
351 -815 -694 0
-351 815 0
-351 694 0
352 -351 -38 0
-352 351 0
-352 38 0
353 -840 -350 0
-353 840 0
-353 350 0
354 -705 -772 0
-354 705 0
-354 772 0
355 -354 -46 0
-355 354 0
-355 46 0
356 -841 -353 0
-356 841 0
-356 353 0
357 -722 -708 0
-357 722 0
-357 708 0
358 -357 -842 0
-358 357 0
-358 842 0
359 -843 -356 0
-359 843 0
-359 356 0
360 -44 -4 0
-360 44 0
-360 4 0
361 -360 -797 0
-361 360 0
-361 797 0
362 -844 -359 0
-362 844 0
-362 359 0
363 -31 -20 0
-363 31 0
-363 20 0
364 -363 -845 0
-364 363 0
-364 845 0
365 -846 -362 0
-365 846 0
-365 362 0
366 -44 -13 0
-366 44 0
-366 13 0
367 -366 -797 0
-367 366 0
-367 797 0
368 -847 -365 0
-368 847 0
-368 365 0
369 -722 -743 0
-369 722 0
-369 743 0
370 -369 -710 0
-370 369 0
-370 710 0
371 -848 -368 0
-371 848 0
-371 368 0
372 -756 -735 0
-372 756 0
-372 735 0
373 -372 -38 0
-373 372 0
-373 38 0
374 -849 -371 0
-374 849 0
-374 371 0
375 -738 -26 0
-375 738 0
-375 26 0
376 -375 -47 0
-376 375 0
-376 47 0
377 -850 -374 0
-377 850 0
-377 374 0
378 -756 -734 0
-378 756 0
-378 734 0
379 -378 -697 0
-379 378 0
-379 697 0
380 -851 -377 0
-380 851 0
-380 377 0
381 -768 -779 0
-381 768 0
-381 779 0
382 -381 -842 0
-382 381 0
-382 842 0
383 -852 -380 0
-383 852 0
-383 380 0
384 -41 -734 0
-384 41 0
-384 734 0
385 -384 -28 0
-385 384 0
-385 28 0
386 -853 -383 0
-386 853 0
-386 383 0
387 -43 -772 0
-387 43 0
-387 772 0
388 -387 -710 0
-388 387 0
-388 710 0
389 -854 -386 0
-389 854 0
-389 386 0
390 -8 -772 0
-390 8 0
-390 772 0
391 -390 -39 0
-391 390 0
-391 39 0
392 -855 -389 0
-392 855 0
-392 389 0
393 -19 -5 0
-393 19 0
-393 5 0
394 -393 -749 0
-394 393 0
-394 749 0
395 -856 -392 0
-395 856 0
-395 392 0
396 -42 -23 0
-396 42 0
-396 23 0
397 -396 -24 0
-397 396 0
-397 24 0
398 -857 -395 0
-398 857 0
-398 395 0
399 -776 -797 0
-399 776 0
-399 797 0
400 -399 -3 0
-400 399 0
-400 3 0
401 -858 -398 0
-401 858 0
-401 398 0
402 -791 -7 0
-402 791 0
-402 7 0
403 -402 -749 0
-403 402 0
-403 749 0
404 -859 -401 0
-404 859 0
-404 401 0
405 -729 -25 0
-405 729 0
-405 25 0
406 -405 -737 0
-406 405 0
-406 737 0
407 -860 -404 0
-407 860 0
-407 404 0
408 -31 -708 0
-408 31 0
-408 708 0
409 -408 -32 0
-409 408 0
-409 32 0
410 -861 -407 0
-410 861 0
-410 407 0
411 -43 -9 0
-411 43 0
-411 9 0
412 -411 -786 0
-412 411 0
-412 786 0
413 -862 -410 0
-413 862 0
-413 410 0
414 -44 -863 0
-414 44 0
-414 863 0
415 -414 -716 0
-415 414 0
-415 716 0
416 -864 -413 0
-416 864 0
-416 413 0
417 -34 -708 0
-417 34 0
-417 708 0
418 -417 -16 0
-418 417 0
-418 16 0
419 -865 -416 0
-419 865 0
-419 416 0
420 -866 -722 0
-420 866 0
-420 722 0
421 -420 -737 0
-421 420 0
-421 737 0
422 -867 -419 0
-422 867 0
-422 419 0
423 -734 -729 0
-423 734 0
-423 729 0
424 -423 -722 0
-424 423 0
-424 722 0
425 -868 -422 0
-425 868 0
-425 422 0
426 -738 -706 0
-426 738 0
-426 706 0
427 -426 -809 0
-427 426 0
-427 809 0
428 -869 -425 0
-428 869 0
-428 425 0
429 -734 -701 0
-429 734 0
-429 701 0
430 -429 -10 0
-430 429 0
-430 10 0
431 -870 -428 0
-431 870 0
-431 428 0
432 -28 -16 0
-432 28 0
-432 16 0
433 -432 -17 0
-433 432 0
-433 17 0
434 -871 -431 0
-434 871 0
-434 431 0
435 -22 -749 0
-435 22 0
-435 749 0
436 -435 -731 0
-436 435 0
-436 731 0
437 -872 -434 0
-437 872 0
-437 434 0
438 -776 -14 0
-438 776 0
-438 14 0
439 -438 -10 0
-439 438 0
-439 10 0
440 -873 -437 0
-440 873 0
-440 437 0
441 -27 -18 0
-441 27 0
-441 18 0
442 -441 -30 0
-442 441 0
-442 30 0
443 -874 -440 0
-443 874 0
-443 440 0
444 -37 -827 0
-444 37 0
-444 827 0
445 -444 -693 0
-445 444 0
-445 693 0
446 -875 -443 0
-446 875 0
-446 443 0
447 -34 -5 0
-447 34 0
-447 5 0
448 -447 -3 0
-448 447 0
-448 3 0
449 -876 -446 0
-449 876 0
-449 446 0
450 -49 -735 0
-450 49 0
-450 735 0
451 -450 -741 0
-451 450 0
-451 741 0
452 -877 -449 0
-452 877 0
-452 449 0
453 -37 -17 0
-453 37 0
-453 17 0
454 -453 -50 0
-454 453 0
-454 50 0
455 -878 -452 0
-455 878 0
-455 452 0
456 -270 -32 0
-456 270 0
-456 32 0
457 -879 -455 0
-457 879 0
-457 455 0
458 -713 -845 0
-458 713 0
-458 845 0
459 -458 -5 0
-459 458 0
-459 5 0
460 -880 -457 0
-460 880 0
-460 457 0
461 -699 -4 0
-461 699 0
-461 4 0
462 -461 -19 0
-462 461 0
-462 19 0
463 -881 -460 0
-463 881 0
-463 460 0
464 -18 -703 0
-464 18 0
-464 703 0
465 -464 -2 0
-465 464 0
-465 2 0
466 -882 -463 0
-466 882 0
-466 463 0
467 -399 -46 0
-467 399 0
-467 46 0
468 -883 -466 0
-468 883 0
-468 466 0
469 -791 -708 0
-469 791 0
-469 708 0
470 -469 -697 0
-470 469 0
-470 697 0
471 -884 -468 0
-471 884 0
-471 468 0
472 -43 -2 0
-472 43 0
-472 2 0
473 -472 -863 0
-473 472 0
-473 863 0
474 -885 -471 0
-474 885 0
-474 471 0
475 -718 -6 0
-475 718 0
-475 6 0
476 -475 -26 0
-476 475 0
-476 26 0
477 -886 -474 0
-477 886 0
-477 474 0
478 -48 -716 0
-478 48 0
-478 716 0
479 -478 -727 0
-479 478 0
-479 727 0
480 -887 -477 0
-480 887 0
-480 477 0
481 -43 -807 0
-481 43 0
-481 807 0
482 -481 -32 0
-482 481 0
-482 32 0
483 -888 -480 0
-483 888 0
-483 480 0
484 -809 -693 0
-484 809 0
-484 693 0
485 -484 -711 0
-485 484 0
-485 711 0
486 -889 -483 0
-486 889 0
-486 483 0
487 -35 -749 0
-487 35 0
-487 749 0
488 -487 -32 0
-488 487 0
-488 32 0
489 -890 -486 0
-489 890 0
-489 486 0
490 -735 -743 0
-490 735 0
-490 743 0
491 -490 -32 0
-491 490 0
-491 32 0
492 -891 -489 0
-492 891 0
-492 489 0
493 -89 -36 0
-493 89 0
-493 36 0
494 -892 -492 0
-494 892 0
-494 492 0
495 -729 -10 0
-495 729 0
-495 10 0
496 -495 -21 0
-496 495 0
-496 21 0
497 -893 -494 0
-497 893 0
-497 494 0
498 -725 -827 0
-498 725 0
-498 827 0
499 -498 -697 0
-499 498 0
-499 697 0
500 -894 -497 0
-500 894 0
-500 497 0
501 -47 -699 0
-501 47 0
-501 699 0
502 -501 -693 0
-502 501 0
-502 693 0
503 -895 -500 0
-503 895 0
-503 500 0
504 -41 -743 0
-504 41 0
-504 743 0
505 -504 -711 0
-505 504 0
-505 711 0
506 -896 -503 0
-506 896 0
-506 503 0
507 -737 -716 0
-507 737 0
-507 716 0
508 -507 -711 0
-508 507 0
-508 711 0
509 -897 -506 0
-509 897 0
-509 506 0
510 -786 -26 0
-510 786 0
-510 26 0
511 -510 -32 0
-511 510 0
-511 32 0
512 -898 -509 0
-512 898 0
-512 509 0
513 -807 -718 0
-513 807 0
-513 718 0
514 -513 -713 0
-514 513 0
-514 713 0
515 -899 -512 0
-515 899 0
-515 512 0
516 -735 -9 0
-516 735 0
-516 9 0
517 -516 -741 0
-517 516 0
-517 741 0
518 -900 -515 0
-518 900 0
-518 515 0
519 -35 -10 0
-519 35 0
-519 10 0
520 -519 -863 0
-520 519 0
-520 863 0
521 -901 -518 0
-521 901 0
-521 518 0
522 -42 -35 0
-522 42 0
-522 35 0
523 -522 -5 0
-523 522 0
-523 5 0
524 -902 -521 0
-524 902 0
-524 521 0
525 -710 -14 0
-525 710 0
-525 14 0
526 -525 -809 0
-526 525 0
-526 809 0
527 -903 -524 0
-527 903 0
-527 524 0
528 -786 -8 0
-528 786 0
-528 8 0
529 -528 -710 0
-529 528 0
-529 710 0
530 -904 -527 0
-530 904 0
-530 527 0
531 -22 -735 0
-531 22 0
-531 735 0
532 -531 -802 0
-532 531 0
-532 802 0
533 -905 -530 0
-533 905 0
-533 530 0
534 -845 -772 0
-534 845 0
-534 772 0
535 -534 -759 0
-535 534 0
-535 759 0
536 -906 -533 0
-536 906 0
-536 533 0
537 -37 -716 0
-537 37 0
-537 716 0
538 -537 -46 0
-538 537 0
-538 46 0
539 -907 -536 0
-539 907 0
-539 536 0
540 -44 -753 0
-540 44 0
-540 753 0
541 -540 -735 0
-541 540 0
-541 735 0
542 -908 -539 0
-542 908 0
-542 539 0
543 -807 -721 0
-543 807 0
-543 721 0
544 -543 -24 0
-544 543 0
-544 24 0
545 -909 -542 0
-545 909 0
-545 542 0
546 -42 -735 0
-546 42 0
-546 735 0
547 -546 -15 0
-547 546 0
-547 15 0
548 -910 -545 0
-548 910 0
-548 545 0
549 -22 -4 0
-549 22 0
-549 4 0
550 -549 -34 0
-550 549 0
-550 34 0
551 -911 -548 0
-551 911 0
-551 548 0
552 -706 -1 0
-552 706 0
-552 1 0
553 -552 -3 0
-553 552 0
-553 3 0
554 -912 -551 0
-554 912 0
-554 551 0
555 -243 -17 0
-555 243 0
-555 17 0
556 -913 -554 0
-556 913 0
-556 554 0
557 -845 -697 0
-557 845 0
-557 697 0
558 -557 -50 0
-558 557 0
-558 50 0
559 -914 -556 0
-559 914 0
-559 556 0
560 -31 -713 0
-560 31 0
-560 713 0
561 -560 -3 0
-561 560 0
-561 3 0
562 -915 -559 0
-562 915 0
-562 559 0
563 -741 -28 0
-563 741 0
-563 28 0
564 -563 -32 0
-564 563 0
-564 32 0
565 -916 -562 0
-565 916 0
-565 562 0
566 -786 -738 0
-566 786 0
-566 738 0
567 -566 -842 0
-567 566 0
-567 842 0
568 -917 -565 0
-568 917 0
-568 565 0
569 -40 -743 0
-569 40 0
-569 743 0
570 -569 -697 0
-570 569 0
-570 697 0
571 -918 -568 0
-571 918 0
-571 568 0
572 -866 -31 0
-572 866 0
-572 31 0
573 -572 -731 0
-573 572 0
-573 731 0
574 -919 -571 0
-574 919 0
-574 571 0
575 -43 -768 0
-575 43 0
-575 768 0
576 -575 -693 0
-576 575 0
-576 693 0
577 -920 -574 0
-577 920 0
-577 574 0
578 -219 -38 0
-578 219 0
-578 38 0
579 -921 -577 0
-579 921 0
-579 577 0
580 -756 -8 0
-580 756 0
-580 8 0
581 -580 -693 0
-581 580 0
-581 693 0
582 -922 -579 0
-582 922 0
-582 579 0
583 -45 -779 0
-583 45 0
-583 779 0
584 -583 -42 0
-584 583 0
-584 42 0
585 -923 -582 0
-585 923 0
-585 582 0
586 -807 -9 0
-586 807 0
-586 9 0
587 -586 -34 0
-587 586 0
-587 34 0
588 -924 -585 0
-588 924 0
-588 585 0
589 -44 -11 0
-589 44 0
-589 11 0
590 -589 -28 0
-590 589 0
-590 28 0
591 -925 -588 0
-591 925 0
-591 588 0
592 -11 -2 0
-592 11 0
-592 2 0
593 -592 -34 0
-593 592 0
-593 34 0
594 -926 -591 0
-594 926 0
-594 591 0
595 -30 -694 0
-595 30 0
-595 694 0
596 -595 -46 0
-596 595 0
-596 46 0
597 -927 -594 0
-597 927 0
-597 594 0
598 -30 -725 0
-598 30 0
-598 725 0
599 -598 -47 0
-599 598 0
-599 47 0
600 -928 -597 0
-600 928 0
-600 597 0
601 -49 -741 0
-601 49 0
-601 741 0
602 -601 -46 0
-602 601 0
-602 46 0
603 -929 -600 0
-603 929 0
-603 600 0
604 -35 -13 0
-604 35 0
-604 13 0
605 -604 -32 0
-605 604 0
-605 32 0
606 -930 -603 0
-606 930 0
-606 603 0
607 -46 -25 0
-607 46 0
-607 25 0
608 -607 -731 0
-608 607 0
-608 731 0
609 -931 -606 0
-609 931 0
-609 606 0
610 -729 -710 0
-610 729 0
-610 710 0
611 -610 -802 0
-611 610 0
-611 802 0
612 -932 -609 0
-612 932 0
-612 609 0
613 -716 -14 0
-613 716 0
-613 14 0
614 -613 -741 0
-614 613 0
-614 741 0
615 -933 -612 0
-615 933 0
-615 612 0
616 -842 -845 0
-616 842 0
-616 845 0
617 -616 -21 0
-617 616 0
-617 21 0
618 -934 -615 0
-618 934 0
-618 615 0
619 -18 -827 0
-619 18 0
-619 827 0
620 -619 -768 0
-620 619 0
-620 768 0
621 -935 -618 0
-621 935 0
-621 618 0
622 -738 -708 0
-622 738 0
-622 708 0
623 -622 -772 0
-623 622 0
-623 772 0
624 -936 -621 0
-624 936 0
-624 621 0
625 -722 -713 0
-625 722 0
-625 713 0
626 -625 -716 0
-626 625 0
-626 716 0
627 -937 -624 0
-627 937 0
-627 624 0
628 -40 -738 0
-628 40 0
-628 738 0
629 -628 -43 0
-629 628 0
-629 43 0
630 -938 -627 0
-630 938 0
-630 627 0
631 -44 -2 0
-631 44 0
-631 2 0
632 -631 -842 0
-632 631 0
-632 842 0
633 -939 -630 0
-633 939 0
-633 630 0
634 -39 -5 0
-634 39 0
-634 5 0
635 -634 -727 0
-635 634 0
-635 727 0
636 -940 -633 0
-636 940 0
-636 633 0
637 -201 -16 0
-637 201 0
-637 16 0
638 -941 -636 0
-638 941 0
-638 636 0
639 -756 -772 0
-639 756 0
-639 772 0
640 -639 -23 0
-640 639 0
-640 23 0
641 -942 -638 0
-641 942 0
-641 638 0
642 -201 -768 0
-642 201 0
-642 768 0
643 -943 -641 0
-643 943 0
-643 641 0
644 -50 -10 0
-644 50 0
-644 10 0
645 -644 -727 0
-645 644 0
-645 727 0
646 -944 -643 0
-646 944 0
-646 643 0
647 -342 -15 0
-647 342 0
-647 15 0
648 -945 -646 0
-648 945 0
-648 646 0
649 -327 -802 0
-649 327 0
-649 802 0
650 -946 -648 0
-650 946 0
-650 648 0
651 -45 -725 0
-651 45 0
-651 725 0
652 -651 -693 0
-652 651 0
-652 693 0
653 -947 -650 0
-653 947 0
-653 650 0
654 -722 -15 0
-654 722 0
-654 15 0
655 -654 -693 0
-655 654 0
-655 693 0
656 -948 -653 0
-656 948 0
-656 653 0
657 -39 -16 0
-657 39 0
-657 16 0
658 -657 -32 0
-658 657 0
-658 32 0
659 -949 -656 0
-659 949 0
-659 656 0
660 -41 -12 0
-660 41 0
-660 12 0
661 -660 -693 0
-661 660 0
-661 693 0
662 -950 -659 0
-662 950 0
-662 659 0
663 -779 -701 0
-663 779 0
-663 701 0
664 -663 -749 0
-664 663 0
-664 749 0
665 -951 -662 0
-665 951 0
-665 662 0
666 -703 -743 0
-666 703 0
-666 743 0
667 -666 -713 0
-667 666 0
-667 713 0
668 -952 -665 0
-668 952 0
-668 665 0
669 -47 -16 0
-669 47 0
-669 16 0
670 -669 -802 0
-670 669 0
-670 802 0
671 -953 -668 0
-671 953 0
-671 668 0
672 -44 -16 0
-672 44 0
-672 16 0
673 -672 -3 0
-673 672 0
-673 3 0
674 -954 -671 0
-674 954 0
-674 671 0
675 -8 -2 0
-675 8 0
-675 2 0
676 -675 -29 0
-676 675 0
-676 29 0
677 -955 -674 0
-677 955 0
-677 674 0
678 -756 -23 0
-678 756 0
-678 23 0
679 -678 -37 0
-679 678 0
-679 37 0
680 -956 -677 0
-680 956 0
-680 677 0
681 -43 -703 0
-681 43 0
-681 703 0
682 -681 -842 0
-682 681 0
-682 842 0
683 -957 -680 0
-683 957 0
-683 680 0
684 -721 -6 0
-684 721 0
-684 6 0
685 -684 -699 0
-685 684 0
-685 699 0
686 -958 -683 0
-686 958 0
-686 683 0
687 -795 -738 0
-687 795 0
-687 738 0
688 -687 -842 0
-688 687 0
-688 842 0
689 -959 -686 0
-689 959 0
-689 686 0
690 -807 -701 0
-690 807 0
-690 701 0
691 -690 -815 0
-691 690 0
-691 815 0
692 -960 -689 0
-692 960 0
-692 689 0
-693 -3 0
693 3 0
-694 -4 0
694 4 0
-695 -54 0
695 54 0
-696 -52 0
696 52 0
-697 -8 0
697 8 0
-698 -57 0
698 57 0
-699 -10 0
699 10 0
-700 -60 0
700 60 0
-701 -9 0
701 9 0
-702 -63 0
702 63 0
-703 -12 0
703 12 0
-704 -66 0
704 66 0
-705 -16 0
705 16 0
-706 -15 0
706 15 0
-707 -69 0
707 69 0
-708 -18 0
708 18 0
-709 -72 0
709 72 0
-710 -19 0
710 19 0
-711 -21 0
711 21 0
-712 -75 0
712 75 0
-713 -22 0
713 22 0
-714 -23 0
714 23 0
-715 -78 0
715 78 0
-716 -24 0
716 24 0
-717 -81 0
717 81 0
-718 -25 0
718 25 0
-719 -84 0
719 84 0
-720 -87 0
720 87 0
-721 -28 0
721 28 0
-722 -27 0
722 27 0
-723 -29 0
723 29 0
-724 -90 0
724 90 0
-725 -20 0
725 20 0
-726 -93 0
726 93 0
-727 -32 0
727 32 0
-728 -96 0
728 96 0
-729 -34 0
729 34 0
-730 -99 0
730 99 0
-731 -36 0
731 36 0
-732 -102 0
732 102 0
-733 -105 0
733 105 0
-734 -40 0
734 40 0
-735 -14 0
735 14 0
-736 -108 0
736 108 0
-737 -41 0
737 41 0
-738 -30 0
738 30 0
-739 -111 0
739 111 0
-740 -114 0
740 114 0
-741 -39 0
741 39 0
-742 -117 0
742 117 0
-743 -11 0
743 11 0
-744 -120 0
744 120 0
-745 -123 0
745 123 0
-746 -126 0
746 126 0
-747 -129 0
747 129 0
-748 -132 0
748 132 0
-749 -17 0
749 17 0
-750 -135 0
750 135 0
-751 -138 0
751 138 0
-752 -140 0
752 140 0
-753 -6 0
753 6 0
-754 -143 0
754 143 0
-755 -146 0
755 146 0
-756 -45 0
756 45 0
-757 -149 0
757 149 0
-758 -152 0
758 152 0
-759 -46 0
759 46 0
-760 -155 0
760 155 0
-761 -158 0
761 158 0
-762 -161 0
762 161 0
-763 -164 0
763 164 0
-764 -167 0
764 167 0
-765 -170 0
765 170 0
-766 -173 0
766 173 0
-767 -176 0
767 176 0
-768 -35 0
768 35 0
-769 -179 0
769 179 0
-770 -182 0
770 182 0
-771 -7 0
771 7 0
-772 -5 0
772 5 0
-773 -185 0
773 185 0
-774 -188 0
774 188 0
-775 -190 0
775 190 0
-776 -48 0
776 48 0
-777 -193 0
777 193 0
-778 -196 0
778 196 0
-779 -26 0
779 26 0
-780 -199 0
780 199 0
-781 -202 0
781 202 0
-782 -205 0
782 205 0
-783 -208 0
783 208 0
-784 -211 0
784 211 0
-785 -214 0
785 214 0
-786 -47 0
786 47 0
-787 -217 0
787 217 0
-788 -220 0
788 220 0
-789 -223 0
789 223 0
-790 -226 0
790 226 0
-791 -49 0
791 49 0
-792 -229 0
792 229 0
-793 -232 0
793 232 0
-794 -235 0
794 235 0
-795 -43 0
795 43 0
-796 -238 0
796 238 0
-797 -2 0
797 2 0
-798 -241 0
798 241 0
-799 -244 0
799 244 0
-800 -247 0
800 247 0
-801 -250 0
801 250 0
-802 -50 0
802 50 0
-803 -253 0
803 253 0
-804 -256 0
804 256 0
-805 -259 0
805 259 0
-806 -262 0
806 262 0
-807 -31 0
807 31 0
-808 -265 0
808 265 0
-809 -33 0
809 33 0
-810 -268 0
810 268 0
-811 -271 0
811 271 0
-812 -274 0
812 274 0
-813 -277 0
813 277 0
-814 -280 0
814 280 0
-815 -42 0
815 42 0
-816 -283 0
816 283 0
-817 -286 0
817 286 0
-818 -289 0
818 289 0
-819 -292 0
819 292 0
-820 -295 0
820 295 0
-821 -298 0
821 298 0
-822 -301 0
822 301 0
-823 -304 0
823 304 0
-824 -307 0
824 307 0
-825 -310 0
825 310 0
-826 -313 0
826 313 0
-827 -1 0
827 1 0
-828 -316 0
828 316 0
-829 -319 0
829 319 0
-830 -322 0
830 322 0
-831 -325 0
831 325 0
-832 -328 0
832 328 0
-833 -331 0
833 331 0
-834 -334 0
834 334 0
-835 -337 0
835 337 0
-836 -340 0
836 340 0
-837 -343 0
837 343 0
-838 -346 0
838 346 0
-839 -349 0
839 349 0
-840 -352 0
840 352 0
-841 -355 0
841 355 0
-842 -38 0
842 38 0
-843 -358 0
843 358 0
-844 -361 0
844 361 0
-845 -13 0
845 13 0
-846 -364 0
846 364 0
-847 -367 0
847 367 0
-848 -370 0
848 370 0
-849 -373 0
849 373 0
-850 -376 0
850 376 0
-851 -379 0
851 379 0
-852 -382 0
852 382 0
-853 -385 0
853 385 0
-854 -388 0
854 388 0
-855 -391 0
855 391 0
-856 -394 0
856 394 0
-857 -397 0
857 397 0
-858 -400 0
858 400 0
-859 -403 0
859 403 0
-860 -406 0
860 406 0
-861 -409 0
861 409 0
-862 -412 0
862 412 0
-863 -37 0
863 37 0
-864 -415 0
864 415 0
-865 -418 0
865 418 0
-866 -44 0
866 44 0
-867 -421 0
867 421 0
-868 -424 0
868 424 0
-869 -427 0
869 427 0
-870 -430 0
870 430 0
-871 -433 0
871 433 0
-872 -436 0
872 436 0
-873 -439 0
873 439 0
-874 -442 0
874 442 0
-875 -445 0
875 445 0
-876 -448 0
876 448 0
-877 -451 0
877 451 0
-878 -454 0
878 454 0
-879 -456 0
879 456 0
-880 -459 0
880 459 0
-881 -462 0
881 462 0
-882 -465 0
882 465 0
-883 -467 0
883 467 0
-884 -470 0
884 470 0
-885 -473 0
885 473 0
-886 -476 0
886 476 0
-887 -479 0
887 479 0
-888 -482 0
888 482 0
-889 -485 0
889 485 0
-890 -488 0
890 488 0
-891 -491 0
891 491 0
-892 -493 0
892 493 0
-893 -496 0
893 496 0
-894 -499 0
894 499 0
-895 -502 0
895 502 0
-896 -505 0
896 505 0
-897 -508 0
897 508 0
-898 -511 0
898 511 0
-899 -514 0
899 514 0
-900 -517 0
900 517 0
-901 -520 0
901 520 0
-902 -523 0
902 523 0
-903 -526 0
903 526 0
-904 -529 0
904 529 0
-905 -532 0
905 532 0
-906 -535 0
906 535 0
-907 -538 0
907 538 0
-908 -541 0
908 541 0
-909 -544 0
909 544 0
-910 -547 0
910 547 0
-911 -550 0
911 550 0
-912 -553 0
912 553 0
-913 -555 0
913 555 0
-914 -558 0
914 558 0
-915 -561 0
915 561 0
-916 -564 0
916 564 0
-917 -567 0
917 567 0
-918 -570 0
918 570 0
-919 -573 0
919 573 0
-920 -576 0
920 576 0
-921 -578 0
921 578 0
-922 -581 0
922 581 0
-923 -584 0
923 584 0
-924 -587 0
924 587 0
-925 -590 0
925 590 0
-926 -593 0
926 593 0
-927 -596 0
927 596 0
-928 -599 0
928 599 0
-929 -602 0
929 602 0
-930 -605 0
930 605 0
-931 -608 0
931 608 0
-932 -611 0
932 611 0
-933 -614 0
933 614 0
-934 -617 0
934 617 0
-935 -620 0
935 620 0
-936 -623 0
936 623 0
-937 -626 0
937 626 0
-938 -629 0
938 629 0
-939 -632 0
939 632 0
-940 -635 0
940 635 0
-941 -637 0
941 637 0
-942 -640 0
942 640 0
-943 -642 0
943 642 0
-944 -645 0
944 645 0
-945 -647 0
945 647 0
-946 -649 0
946 649 0
-947 -652 0
947 652 0
-948 -655 0
948 655 0
-949 -658 0
949 658 0
-950 -661 0
950 661 0
-951 -664 0
951 664 0
-952 -667 0
952 667 0
-953 -670 0
953 670 0
-954 -673 0
954 673 0
-955 -676 0
955 676 0
-956 -679 0
956 679 0
-957 -682 0
957 682 0
-958 -685 0
958 685 0
-959 -688 0
959 688 0
-960 -691 0
960 691 0
692 0
